p tw 176 39601 2 
1 90 
1 92 
1 93 
1 96 
1 97 
1 99 
1 102 
1 103 
1 105 
1 107 
1 110 
1 112 
1 113 
1 116 
1 118 
1 119 
1 122 
1 123 
1 125 
1 128 
1 130 
1 131 
1 133 
1 136 
1 137 
1 139 
1 141 
1 143 
1 146 
1 148 
1 150 
1 151 
1 153 
1 155 
1 158 
1 159 
1 162 
1 164 
1 165 
1 167 
1 170 
1 172 
1 174 
1 175 
2 89 
2 91 
2 94 
2 95 
2 98 
2 100 
2 101 
2 104 
2 106 
2 108 
2 109 
2 111 
2 114 
2 115 
2 117 
2 120 
2 121 
2 124 
2 126 
2 127 
2 129 
2 132 
2 134 
2 135 
2 138 
2 140 
2 142 
2 144 
2 145 
2 147 
2 149 
2 152 
2 154 
2 156 
2 157 
2 160 
2 161 
2 163 
2 166 
2 168 
2 169 
2 171 
2 173 
2 176 
3 4 
3 89 
3 92 
3 94 
3 96 
3 97 
3 99 
3 102 
3 103 
3 106 
3 108 
3 110 
3 112 
3 113 
3 116 
3 118 
3 120 
3 121 
3 124 
3 125 
3 127 
3 129 
3 131 
3 134 
3 135 
3 138 
3 140 
3 141 
3 144 
3 145 
3 147 
3 150 
3 151 
3 154 
3 155 
3 157 
3 160 
3 161 
3 164 
3 165 
3 167 
3 170 
3 171 
3 174 
3 176 
4 90 
4 91 
4 93 
4 95 
4 98 
4 100 
4 101 
4 104 
4 105 
4 107 
4 109 
4 111 
4 114 
4 115 
4 117 
4 119 
4 122 
4 123 
4 126 
4 128 
4 130 
4 132 
4 133 
4 136 
4 137 
4 139 
4 142 
4 143 
4 146 
4 148 
4 149 
4 152 
4 153 
4 156 
4 158 
4 159 
4 162 
4 163 
4 166 
4 168 
4 169 
4 172 
4 173 
4 175 
5 6 
5 90 
5 91 
5 93 
5 95 
5 97 
5 99 
5 101 
5 104 
5 106 
5 107 
5 109 
5 111 
5 114 
5 115 
5 118 
5 119 
5 121 
5 123 
5 125 
5 127 
5 130 
5 131 
5 133 
5 135 
5 137 
5 140 
5 141 
5 144 
5 145 
5 147 
5 150 
5 151 
5 153 
5 155 
5 157 
5 159 
5 161 
5 163 
5 165 
5 168 
5 169 
5 172 
5 174 
5 176 
6 89 
6 92 
6 94 
6 96 
6 98 
6 100 
6 102 
6 103 
6 105 
6 108 
6 110 
6 112 
6 113 
6 116 
6 117 
6 120 
6 122 
6 124 
6 126 
6 128 
6 129 
6 132 
6 134 
6 136 
6 138 
6 139 
6 142 
6 143 
6 146 
6 148 
6 149 
6 152 
6 154 
6 156 
6 158 
6 160 
6 162 
6 164 
6 166 
6 167 
6 170 
6 171 
6 173 
6 175 
7 8 
7 90 
7 91 
7 94 
7 96 
7 97 
7 100 
7 101 
7 103 
7 105 
7 107 
7 110 
7 112 
7 113 
7 116 
7 117 
7 119 
7 122 
7 123 
7 125 
7 128 
7 130 
7 131 
7 134 
7 135 
7 137 
7 139 
7 142 
7 143 
7 145 
7 147 
7 150 
7 152 
7 154 
7 156 
7 157 
7 160 
7 161 
7 163 
7 166 
7 168 
7 169 
7 171 
7 174 
7 176 
8 89 
8 92 
8 93 
8 95 
8 98 
8 99 
8 102 
8 104 
8 106 
8 108 
8 109 
8 111 
8 114 
8 115 
8 118 
8 120 
8 121 
8 124 
8 126 
8 127 
8 129 
8 132 
8 133 
8 136 
8 138 
8 140 
8 141 
8 144 
8 146 
8 148 
8 149 
8 151 
8 153 
8 155 
8 158 
8 159 
8 162 
8 164 
8 165 
8 167 
8 170 
8 172 
8 173 
8 175 
9 10 
9 89 
9 92 
9 94 
9 96 
9 97 
9 100 
9 102 
9 104 
9 105 
9 107 
9 109 
9 112 
9 114 
9 116 
9 118 
9 120 
9 122 
9 124 
9 126 
9 127 
9 130 
9 131 
9 133 
9 135 
9 137 
9 139 
9 141 
9 144 
9 145 
9 147 
9 149 
9 152 
9 153 
9 156 
9 158 
9 159 
9 161 
9 164 
9 166 
9 167 
9 169 
9 172 
9 173 
9 176 
10 90 
10 91 
10 93 
10 95 
10 98 
10 99 
10 101 
10 103 
10 106 
10 108 
10 110 
10 111 
10 113 
10 115 
10 117 
10 119 
10 121 
10 123 
10 125 
10 128 
10 129 
10 132 
10 134 
10 136 
10 138 
10 140 
10 142 
10 143 
10 146 
10 148 
10 150 
10 151 
10 154 
10 155 
10 157 
10 160 
10 162 
10 163 
10 165 
10 168 
10 170 
10 171 
10 174 
10 175 
11 12 
11 90 
11 92 
11 94 
11 95 
11 97 
11 99 
11 101 
11 104 
11 105 
11 108 
11 110 
11 111 
11 114 
11 115 
11 118 
11 119 
11 122 
11 124 
11 125 
11 127 
11 129 
11 131 
11 134 
11 136 
11 138 
11 139 
11 142 
11 143 
11 146 
11 148 
11 149 
11 151 
11 153 
11 156 
11 157 
11 160 
11 161 
11 164 
11 166 
11 167 
11 169 
11 172 
11 174 
11 176 
12 89 
12 91 
12 93 
12 96 
12 98 
12 100 
12 102 
12 103 
12 106 
12 107 
12 109 
12 112 
12 113 
12 116 
12 117 
12 120 
12 121 
12 123 
12 126 
12 128 
12 130 
12 132 
12 133 
12 135 
12 137 
12 140 
12 141 
12 144 
12 145 
12 147 
12 150 
12 152 
12 154 
12 155 
12 158 
12 159 
12 162 
12 163 
12 165 
12 168 
12 170 
12 171 
12 173 
12 175 
13 14 
13 90 
13 92 
13 93 
13 96 
13 97 
13 99 
13 101 
13 103 
13 106 
13 107 
13 110 
13 112 
13 113 
13 115 
13 118 
13 120 
13 121 
13 124 
13 126 
13 127 
13 129 
13 132 
13 134 
13 136 
13 137 
13 140 
13 141 
13 143 
13 146 
13 148 
13 150 
13 152 
13 153 
13 156 
13 158 
13 159 
13 161 
13 163 
13 166 
13 168 
13 169 
13 171 
13 173 
13 176 
14 89 
14 91 
14 94 
14 95 
14 98 
14 100 
14 102 
14 104 
14 105 
14 108 
14 109 
14 111 
14 114 
14 116 
14 117 
14 119 
14 122 
14 123 
14 125 
14 128 
14 130 
14 131 
14 133 
14 135 
14 138 
14 139 
14 142 
14 144 
14 145 
14 147 
14 149 
14 151 
14 154 
14 155 
14 157 
14 160 
14 162 
14 164 
14 165 
14 167 
14 170 
14 172 
14 174 
14 175 
15 16 
15 89 
15 91 
15 93 
15 96 
15 98 
15 100 
15 101 
15 104 
15 106 
15 108 
15 109 
15 112 
15 113 
15 116 
15 118 
15 120 
15 122 
15 123 
15 125 
15 127 
15 129 
15 132 
15 133 
15 136 
15 138 
15 139 
15 142 
15 143 
15 145 
15 148 
15 150 
15 152 
15 153 
15 156 
15 157 
15 159 
15 161 
15 163 
15 165 
15 167 
15 170 
15 172 
15 174 
15 176 
16 90 
16 92 
16 94 
16 95 
16 97 
16 99 
16 102 
16 103 
16 105 
16 107 
16 110 
16 111 
16 114 
16 115 
16 117 
16 119 
16 121 
16 124 
16 126 
16 128 
16 130 
16 131 
16 134 
16 135 
16 137 
16 140 
16 141 
16 144 
16 146 
16 147 
16 149 
16 151 
16 154 
16 155 
16 158 
16 160 
16 162 
16 164 
16 166 
16 168 
16 169 
16 171 
16 173 
16 175 
17 18 
17 90 
17 92 
17 93 
17 95 
17 97 
17 100 
17 102 
17 103 
17 106 
17 108 
17 109 
17 111 
17 113 
17 115 
17 118 
17 120 
17 122 
17 124 
17 125 
17 127 
17 130 
17 131 
17 134 
17 136 
17 137 
17 139 
17 142 
17 143 
17 145 
17 147 
17 149 
17 152 
17 154 
17 155 
17 158 
17 160 
17 161 
17 163 
17 165 
17 168 
17 170 
17 172 
17 173 
17 175 
18 89 
18 91 
18 94 
18 96 
18 98 
18 99 
18 101 
18 104 
18 105 
18 107 
18 110 
18 112 
18 114 
18 116 
18 117 
18 119 
18 121 
18 123 
18 126 
18 128 
18 129 
18 132 
18 133 
18 135 
18 138 
18 140 
18 141 
18 144 
18 146 
18 148 
18 150 
18 151 
18 153 
18 156 
18 157 
18 159 
18 162 
18 164 
18 166 
18 167 
18 169 
18 171 
18 174 
18 176 
19 20 
19 90 
19 91 
19 94 
19 96 
19 98 
19 99 
19 101 
19 103 
19 105 
19 108 
19 109 
19 112 
19 113 
19 115 
19 117 
19 120 
19 122 
19 124 
19 125 
19 127 
19 130 
19 132 
19 133 
19 135 
19 137 
19 140 
19 141 
19 143 
19 146 
19 147 
19 149 
19 151 
19 153 
19 156 
19 157 
19 160 
19 162 
19 164 
19 165 
19 168 
19 170 
19 172 
19 173 
19 176 
20 89 
20 92 
20 93 
20 95 
20 97 
20 100 
20 102 
20 104 
20 106 
20 107 
20 110 
20 111 
20 114 
20 116 
20 118 
20 119 
20 121 
20 123 
20 126 
20 128 
20 129 
20 131 
20 134 
20 136 
20 138 
20 139 
20 142 
20 144 
20 145 
20 148 
20 150 
20 152 
20 154 
20 155 
20 158 
20 159 
20 161 
20 163 
20 166 
20 167 
20 169 
20 171 
20 174 
20 175 
21 22 
21 90 
21 91 
21 94 
21 95 
21 97 
21 100 
21 101 
21 103 
21 106 
21 108 
21 109 
21 112 
21 114 
21 116 
21 118 
21 119 
21 121 
21 123 
21 125 
21 128 
21 129 
21 131 
21 134 
21 136 
21 137 
21 140 
21 142 
21 144 
21 146 
21 147 
21 149 
21 152 
21 153 
21 156 
21 158 
21 159 
21 162 
21 164 
21 165 
21 167 
21 170 
21 171 
21 173 
21 176 
22 89 
22 92 
22 93 
22 96 
22 98 
22 99 
22 102 
22 104 
22 105 
22 107 
22 110 
22 111 
22 113 
22 115 
22 117 
22 120 
22 122 
22 124 
22 126 
22 127 
22 130 
22 132 
22 133 
22 135 
22 138 
22 139 
22 141 
22 143 
22 145 
22 148 
22 150 
22 151 
22 154 
22 155 
22 157 
22 160 
22 161 
22 163 
22 166 
22 168 
22 169 
22 172 
22 174 
22 175 
23 24 
23 90 
23 92 
23 94 
23 96 
23 98 
23 100 
23 102 
23 103 
23 106 
23 107 
23 110 
23 112 
23 114 
23 115 
23 118 
23 119 
23 122 
23 123 
23 125 
23 127 
23 129 
23 132 
23 133 
23 135 
23 138 
23 139 
23 142 
23 144 
23 146 
23 147 
23 149 
23 151 
23 153 
23 155 
23 157 
23 159 
23 161 
23 163 
23 166 
23 168 
23 170 
23 171 
23 173 
23 175 
24 89 
24 91 
24 93 
24 95 
24 97 
24 99 
24 101 
24 104 
24 105 
24 108 
24 109 
24 111 
24 113 
24 116 
24 117 
24 120 
24 121 
24 124 
24 126 
24 128 
24 130 
24 131 
24 134 
24 136 
24 137 
24 140 
24 141 
24 143 
24 145 
24 148 
24 150 
24 152 
24 154 
24 156 
24 158 
24 160 
24 162 
24 164 
24 165 
24 167 
24 169 
24 172 
24 174 
24 176 
25 26 
25 90 
25 92 
25 93 
25 96 
25 98 
25 99 
25 101 
25 103 
25 106 
25 108 
25 109 
25 112 
25 114 
25 116 
25 117 
25 119 
25 122 
25 123 
25 126 
25 128 
25 129 
25 131 
25 133 
25 136 
25 138 
25 140 
25 141 
25 143 
25 145 
25 147 
25 149 
25 151 
25 154 
25 155 
25 158 
25 160 
25 161 
25 163 
25 166 
25 167 
25 169 
25 172 
25 173 
25 176 
26 89 
26 91 
26 94 
26 95 
26 97 
26 100 
26 102 
26 104 
26 105 
26 107 
26 110 
26 111 
26 113 
26 115 
26 118 
26 120 
26 121 
26 124 
26 125 
26 127 
26 130 
26 132 
26 134 
26 135 
26 137 
26 139 
26 142 
26 144 
26 146 
26 148 
26 150 
26 152 
26 153 
26 156 
26 157 
26 159 
26 162 
26 164 
26 165 
26 168 
26 170 
26 171 
26 174 
26 175 
27 28 
27 89 
27 92 
27 93 
27 96 
27 97 
27 99 
27 102 
27 103 
27 106 
27 108 
27 109 
27 111 
27 114 
27 115 
27 117 
27 119 
27 122 
27 123 
27 126 
27 128 
27 130 
27 132 
27 134 
27 135 
27 137 
27 139 
27 141 
27 144 
27 146 
27 148 
27 149 
27 152 
27 153 
27 156 
27 157 
27 160 
27 161 
27 163 
27 165 
27 167 
27 170 
27 171 
27 174 
27 176 
28 90 
28 91 
28 94 
28 95 
28 98 
28 100 
28 101 
28 104 
28 105 
28 107 
28 110 
28 112 
28 113 
28 116 
28 118 
28 120 
28 121 
28 124 
28 125 
28 127 
28 129 
28 131 
28 133 
28 136 
28 138 
28 140 
28 142 
28 143 
28 145 
28 147 
28 150 
28 151 
28 154 
28 155 
28 158 
28 159 
28 162 
28 164 
28 166 
28 168 
28 169 
28 172 
28 173 
28 175 
29 30 
29 90 
29 91 
29 93 
29 96 
29 98 
29 100 
29 102 
29 103 
29 105 
29 108 
29 110 
29 111 
29 114 
29 115 
29 118 
29 119 
29 121 
29 124 
29 125 
29 127 
29 130 
29 131 
29 133 
29 135 
29 138 
29 140 
29 141 
29 143 
29 145 
29 148 
29 149 
29 152 
29 154 
29 156 
29 158 
29 159 
29 162 
29 163 
29 166 
29 167 
29 170 
29 171 
29 174 
29 176 
30 89 
30 92 
30 94 
30 95 
30 97 
30 99 
30 101 
30 104 
30 106 
30 107 
30 109 
30 112 
30 113 
30 116 
30 117 
30 120 
30 122 
30 123 
30 126 
30 128 
30 129 
30 132 
30 134 
30 136 
30 137 
30 139 
30 142 
30 144 
30 146 
30 147 
30 150 
30 151 
30 153 
30 155 
30 157 
30 160 
30 161 
30 164 
30 165 
30 168 
30 169 
30 172 
30 173 
30 175 
31 32 
31 89 
31 91 
31 94 
31 95 
31 97 
31 100 
31 102 
31 103 
31 105 
31 107 
31 109 
31 112 
31 114 
31 115 
31 118 
31 119 
31 121 
31 124 
31 126 
31 128 
31 129 
31 132 
31 133 
31 136 
31 138 
31 139 
31 141 
31 143 
31 146 
31 147 
31 150 
31 151 
31 154 
31 156 
31 158 
31 160 
31 161 
31 163 
31 165 
31 168 
31 170 
31 172 
31 174 
31 176 
32 90 
32 92 
32 93 
32 96 
32 98 
32 99 
32 101 
32 104 
32 106 
32 108 
32 110 
32 111 
32 113 
32 116 
32 117 
32 120 
32 122 
32 123 
32 125 
32 127 
32 130 
32 131 
32 134 
32 135 
32 137 
32 140 
32 142 
32 144 
32 145 
32 148 
32 149 
32 152 
32 153 
32 155 
32 157 
32 159 
32 162 
32 164 
32 166 
32 167 
32 169 
32 171 
32 173 
32 175 
33 34 
33 89 
33 91 
33 93 
33 96 
33 98 
33 99 
33 101 
33 103 
33 105 
33 108 
33 110 
33 111 
33 114 
33 115 
33 118 
33 120 
33 122 
33 123 
33 125 
33 128 
33 129 
33 131 
33 134 
33 135 
33 138 
33 139 
33 141 
33 144 
33 146 
33 147 
33 150 
33 152 
33 154 
33 156 
33 158 
33 159 
33 161 
33 164 
33 165 
33 168 
33 169 
33 172 
33 173 
33 175 
34 90 
34 92 
34 94 
34 95 
34 97 
34 100 
34 102 
34 104 
34 106 
34 107 
34 109 
34 112 
34 113 
34 116 
34 117 
34 119 
34 121 
34 124 
34 126 
34 127 
34 130 
34 132 
34 133 
34 136 
34 137 
34 140 
34 142 
34 143 
34 145 
34 148 
34 149 
34 151 
34 153 
34 155 
34 157 
34 160 
34 162 
34 163 
34 166 
34 167 
34 170 
34 171 
34 174 
34 176 
35 36 
35 89 
35 91 
35 93 
35 96 
35 97 
35 100 
35 101 
35 104 
35 105 
35 107 
35 109 
35 111 
35 113 
35 116 
35 118 
35 119 
35 122 
35 123 
35 125 
35 127 
35 130 
35 132 
35 134 
35 136 
35 138 
35 140 
35 141 
35 144 
35 146 
35 148 
35 149 
35 151 
35 154 
35 155 
35 158 
35 160 
35 161 
35 164 
35 166 
35 168 
35 170 
35 171 
35 173 
35 176 
36 90 
36 92 
36 94 
36 95 
36 98 
36 99 
36 102 
36 103 
36 106 
36 108 
36 110 
36 112 
36 114 
36 115 
36 117 
36 120 
36 121 
36 124 
36 126 
36 128 
36 129 
36 131 
36 133 
36 135 
36 137 
36 139 
36 142 
36 143 
36 145 
36 147 
36 150 
36 152 
36 153 
36 156 
36 157 
36 159 
36 162 
36 163 
36 165 
36 167 
36 169 
36 172 
36 174 
36 175 
37 38 
37 90 
37 92 
37 94 
37 96 
37 98 
37 99 
37 101 
37 104 
37 106 
37 107 
37 109 
37 112 
37 114 
37 116 
37 118 
37 119 
37 122 
37 124 
37 126 
37 127 
37 130 
37 131 
37 134 
37 135 
37 138 
37 140 
37 142 
37 144 
37 146 
37 148 
37 150 
37 152 
37 154 
37 156 
37 158 
37 160 
37 162 
37 163 
37 165 
37 168 
37 170 
37 172 
37 174 
37 175 
38 89 
38 91 
38 93 
38 95 
38 97 
38 100 
38 102 
38 103 
38 105 
38 108 
38 110 
38 111 
38 113 
38 115 
38 117 
38 120 
38 121 
38 123 
38 125 
38 128 
38 129 
38 132 
38 133 
38 136 
38 137 
38 139 
38 141 
38 143 
38 145 
38 147 
38 149 
38 151 
38 153 
38 155 
38 157 
38 159 
38 161 
38 164 
38 166 
38 167 
38 169 
38 171 
38 173 
38 176 
39 40 
39 89 
39 92 
39 94 
39 95 
39 97 
39 99 
39 101 
39 103 
39 105 
39 108 
39 110 
39 111 
39 113 
39 116 
39 118 
39 119 
39 122 
39 123 
39 126 
39 127 
39 129 
39 132 
39 133 
39 136 
39 137 
39 140 
39 141 
39 144 
39 145 
39 147 
39 149 
39 152 
39 154 
39 156 
39 157 
39 159 
39 162 
39 163 
39 166 
39 168 
39 170 
39 172 
39 174 
39 175 
40 90 
40 91 
40 93 
40 96 
40 98 
40 100 
40 102 
40 104 
40 106 
40 107 
40 109 
40 112 
40 114 
40 115 
40 117 
40 120 
40 121 
40 124 
40 125 
40 128 
40 130 
40 131 
40 134 
40 135 
40 138 
40 139 
40 142 
40 143 
40 146 
40 148 
40 150 
40 151 
40 153 
40 155 
40 158 
40 160 
40 161 
40 164 
40 165 
40 167 
40 169 
40 171 
40 173 
40 176 
41 42 
41 89 
41 92 
41 93 
41 96 
41 98 
41 99 
41 102 
41 104 
41 105 
41 107 
41 109 
41 112 
41 114 
41 115 
41 118 
41 119 
41 122 
41 124 
41 125 
41 128 
41 129 
41 132 
41 134 
41 136 
41 137 
41 140 
41 142 
41 143 
41 145 
41 147 
41 149 
41 152 
41 154 
41 155 
41 157 
41 159 
41 162 
41 164 
41 165 
41 168 
41 169 
41 171 
41 174 
41 176 
42 90 
42 91 
42 94 
42 95 
42 97 
42 100 
42 101 
42 103 
42 106 
42 108 
42 110 
42 111 
42 113 
42 116 
42 117 
42 120 
42 121 
42 123 
42 126 
42 127 
42 130 
42 131 
42 133 
42 135 
42 138 
42 139 
42 141 
42 144 
42 146 
42 148 
42 150 
42 151 
42 153 
42 156 
42 158 
42 160 
42 161 
42 163 
42 166 
42 167 
42 170 
42 172 
42 173 
42 175 
43 44 
43 89 
43 92 
43 94 
43 95 
43 98 
43 99 
43 101 
43 103 
43 105 
43 107 
43 109 
43 111 
43 113 
43 115 
43 117 
43 120 
43 122 
43 124 
43 125 
43 128 
43 130 
43 131 
43 133 
43 136 
43 138 
43 140 
43 142 
43 144 
43 146 
43 147 
43 150 
43 152 
43 153 
43 155 
43 158 
43 159 
43 161 
43 163 
43 166 
43 167 
43 170 
43 171 
43 174 
43 176 
44 90 
44 91 
44 93 
44 96 
44 97 
44 100 
44 102 
44 104 
44 106 
44 108 
44 110 
44 112 
44 114 
44 116 
44 118 
44 119 
44 121 
44 123 
44 126 
44 127 
44 129 
44 132 
44 134 
44 135 
44 137 
44 139 
44 141 
44 143 
44 145 
44 148 
44 149 
44 151 
44 154 
44 156 
44 157 
44 160 
44 162 
44 164 
44 165 
44 168 
44 169 
44 172 
44 173 
44 175 
45 46 
45 90 
45 92 
45 93 
45 95 
45 98 
45 100 
45 101 
45 103 
45 105 
45 107 
45 109 
45 112 
45 113 
45 115 
45 118 
45 120 
45 121 
45 123 
45 126 
45 128 
45 129 
45 131 
45 134 
45 135 
45 138 
45 139 
45 141 
45 144 
45 145 
45 148 
45 149 
45 152 
45 153 
45 155 
45 157 
45 160 
45 162 
45 164 
45 166 
45 168 
45 170 
45 172 
45 174 
45 176 
46 89 
46 91 
46 94 
46 96 
46 97 
46 99 
46 102 
46 104 
46 106 
46 108 
46 110 
46 111 
46 114 
46 116 
46 117 
46 119 
46 122 
46 124 
46 125 
46 127 
46 130 
46 132 
46 133 
46 136 
46 137 
46 140 
46 142 
46 143 
46 146 
46 147 
46 150 
46 151 
46 154 
46 156 
46 158 
46 159 
46 161 
46 163 
46 165 
46 167 
46 169 
46 171 
46 173 
46 175 
47 48 
47 90 
47 92 
47 94 
47 95 
47 98 
47 100 
47 102 
47 104 
47 106 
47 108 
47 110 
47 112 
47 114 
47 115 
47 117 
47 120 
47 122 
47 123 
47 125 
47 128 
47 130 
47 132 
47 134 
47 136 
47 137 
47 140 
47 141 
47 144 
47 145 
47 148 
47 150 
47 151 
47 154 
47 156 
47 158 
47 159 
47 161 
47 164 
47 166 
47 168 
47 170 
47 172 
47 174 
47 176 
48 89 
48 91 
48 93 
48 96 
48 97 
48 99 
48 101 
48 103 
48 105 
48 107 
48 109 
48 111 
48 113 
48 116 
48 118 
48 119 
48 121 
48 124 
48 126 
48 127 
48 129 
48 131 
48 133 
48 135 
48 138 
48 139 
48 142 
48 143 
48 146 
48 147 
48 149 
48 152 
48 153 
48 155 
48 157 
48 160 
48 162 
48 163 
48 165 
48 167 
48 169 
48 171 
48 173 
48 175 
49 50 
49 89 
49 91 
49 93 
49 95 
49 97 
49 99 
49 101 
49 103 
49 106 
49 107 
49 110 
49 112 
49 114 
49 115 
49 117 
49 119 
49 122 
49 124 
49 125 
49 127 
49 129 
49 132 
49 133 
49 135 
49 137 
49 139 
49 142 
49 144 
49 145 
49 148 
49 150 
49 152 
49 154 
49 155 
49 158 
49 160 
49 162 
49 164 
49 166 
49 167 
49 170 
49 172 
49 173 
49 176 
50 90 
50 92 
50 94 
50 96 
50 98 
50 100 
50 102 
50 104 
50 105 
50 108 
50 109 
50 111 
50 113 
50 116 
50 118 
50 120 
50 121 
50 123 
50 126 
50 128 
50 130 
50 131 
50 134 
50 136 
50 138 
50 140 
50 141 
50 143 
50 146 
50 147 
50 149 
50 151 
50 153 
50 156 
50 157 
50 159 
50 161 
50 163 
50 165 
50 168 
50 169 
50 171 
50 174 
50 175 
51 52 
51 90 
51 91 
51 93 
51 95 
51 98 
51 99 
51 102 
51 103 
51 105 
51 107 
51 109 
51 111 
51 114 
51 116 
51 118 
51 120 
51 122 
51 123 
51 126 
51 127 
51 129 
51 132 
51 134 
51 135 
51 137 
51 140 
51 142 
51 143 
51 145 
51 147 
51 150 
51 151 
51 153 
51 156 
51 158 
51 160 
51 161 
51 164 
51 166 
51 167 
51 170 
51 171 
51 174 
51 175 
52 89 
52 92 
52 94 
52 96 
52 97 
52 100 
52 101 
52 104 
52 106 
52 108 
52 110 
52 112 
52 113 
52 115 
52 117 
52 119 
52 121 
52 124 
52 125 
52 128 
52 130 
52 131 
52 133 
52 136 
52 138 
52 139 
52 141 
52 144 
52 146 
52 148 
52 149 
52 152 
52 154 
52 155 
52 157 
52 159 
52 162 
52 163 
52 165 
52 168 
52 169 
52 172 
52 173 
52 176 
53 54 
53 89 
53 91 
53 93 
53 95 
53 97 
53 99 
53 102 
53 104 
53 106 
53 107 
53 110 
53 112 
53 113 
53 115 
53 118 
53 120 
53 122 
53 123 
53 126 
53 128 
53 130 
53 131 
53 134 
53 135 
53 138 
53 140 
53 142 
53 143 
53 146 
53 147 
53 149 
53 151 
53 154 
53 156 
53 157 
53 159 
53 162 
53 163 
53 166 
53 167 
53 170 
53 172 
53 173 
53 176 
54 90 
54 92 
54 94 
54 96 
54 98 
54 100 
54 101 
54 103 
54 105 
54 108 
54 109 
54 111 
54 114 
54 116 
54 117 
54 119 
54 121 
54 124 
54 125 
54 127 
54 129 
54 132 
54 133 
54 136 
54 137 
54 139 
54 141 
54 144 
54 145 
54 148 
54 150 
54 152 
54 153 
54 155 
54 158 
54 160 
54 161 
54 164 
54 165 
54 168 
54 169 
54 171 
54 174 
54 175 
55 56 
55 89 
55 91 
55 93 
55 95 
55 98 
55 100 
55 102 
55 103 
55 105 
55 108 
55 110 
55 112 
55 113 
55 116 
55 117 
55 119 
55 122 
55 124 
55 126 
55 127 
55 129 
55 131 
55 134 
55 135 
55 137 
55 140 
55 142 
55 144 
55 146 
55 148 
55 149 
55 151 
55 153 
55 155 
55 158 
55 159 
55 161 
55 163 
55 165 
55 168 
55 169 
55 172 
55 174 
55 176 
56 90 
56 92 
56 94 
56 96 
56 97 
56 99 
56 101 
56 104 
56 106 
56 107 
56 109 
56 111 
56 114 
56 115 
56 118 
56 120 
56 121 
56 123 
56 125 
56 128 
56 130 
56 132 
56 133 
56 136 
56 138 
56 139 
56 141 
56 143 
56 145 
56 147 
56 150 
56 152 
56 154 
56 156 
56 157 
56 160 
56 162 
56 164 
56 166 
56 167 
56 170 
56 171 
56 173 
56 175 
57 58 
57 89 
57 92 
57 94 
57 95 
57 98 
57 99 
57 102 
57 103 
57 106 
57 107 
57 110 
57 111 
57 113 
57 116 
57 118 
57 119 
57 121 
57 123 
57 125 
57 128 
57 130 
57 132 
57 133 
57 135 
57 138 
57 140 
57 142 
57 143 
57 145 
57 148 
57 149 
57 152 
57 153 
57 156 
57 158 
57 160 
57 161 
57 164 
57 165 
57 168 
57 169 
57 172 
57 173 
57 176 
58 90 
58 91 
58 93 
58 96 
58 97 
58 100 
58 101 
58 104 
58 105 
58 108 
58 109 
58 112 
58 114 
58 115 
58 117 
58 120 
58 122 
58 124 
58 126 
58 127 
58 129 
58 131 
58 134 
58 136 
58 137 
58 139 
58 141 
58 144 
58 146 
58 147 
58 150 
58 151 
58 154 
58 155 
58 157 
58 159 
58 162 
58 163 
58 166 
58 167 
58 170 
58 171 
58 174 
58 175 
59 60 
59 90 
59 91 
59 94 
59 96 
59 97 
59 99 
59 102 
59 103 
59 106 
59 107 
59 109 
59 111 
59 113 
59 115 
59 117 
59 120 
59 122 
59 123 
59 126 
59 127 
59 129 
59 131 
59 133 
59 136 
59 138 
59 139 
59 142 
59 144 
59 145 
59 148 
59 149 
59 151 
59 154 
59 156 
59 158 
59 159 
59 162 
59 164 
59 165 
59 168 
59 169 
59 171 
59 174 
59 176 
60 89 
60 92 
60 93 
60 95 
60 98 
60 100 
60 101 
60 104 
60 105 
60 108 
60 110 
60 112 
60 114 
60 116 
60 118 
60 119 
60 121 
60 124 
60 125 
60 128 
60 130 
60 132 
60 134 
60 135 
60 137 
60 140 
60 141 
60 143 
60 146 
60 147 
60 150 
60 152 
60 153 
60 155 
60 157 
60 160 
60 161 
60 163 
60 166 
60 167 
60 170 
60 172 
60 173 
60 175 
61 62 
61 89 
61 92 
61 93 
61 95 
61 98 
61 99 
61 102 
61 103 
61 105 
61 108 
61 109 
61 112 
61 114 
61 116 
61 118 
61 120 
61 121 
61 123 
61 125 
61 127 
61 130 
61 131 
61 133 
61 136 
61 137 
61 139 
61 142 
61 144 
61 146 
61 148 
61 150 
61 151 
61 154 
61 156 
61 157 
61 160 
61 162 
61 163 
61 166 
61 168 
61 169 
61 171 
61 173 
61 176 
62 90 
62 91 
62 94 
62 96 
62 97 
62 100 
62 101 
62 104 
62 106 
62 107 
62 110 
62 111 
62 113 
62 115 
62 117 
62 119 
62 122 
62 124 
62 126 
62 128 
62 129 
62 132 
62 134 
62 135 
62 138 
62 140 
62 141 
62 143 
62 145 
62 147 
62 149 
62 152 
62 153 
62 155 
62 158 
62 159 
62 161 
62 164 
62 165 
62 167 
62 170 
62 172 
62 174 
62 175 
63 64 
63 90 
63 91 
63 94 
63 95 
63 98 
63 99 
63 102 
63 104 
63 105 
63 108 
63 110 
63 112 
63 113 
63 115 
63 118 
63 119 
63 122 
63 123 
63 126 
63 127 
63 130 
63 132 
63 134 
63 136 
63 138 
63 139 
63 141 
63 144 
63 145 
63 147 
63 150 
63 152 
63 153 
63 155 
63 158 
63 160 
63 162 
63 163 
63 165 
63 167 
63 169 
63 171 
63 173 
63 176 
64 89 
64 92 
64 93 
64 96 
64 97 
64 100 
64 101 
64 103 
64 106 
64 107 
64 109 
64 111 
64 114 
64 116 
64 117 
64 120 
64 121 
64 124 
64 125 
64 128 
64 129 
64 131 
64 133 
64 135 
64 137 
64 140 
64 142 
64 143 
64 146 
64 148 
64 149 
64 151 
64 154 
64 156 
64 157 
64 159 
64 161 
64 164 
64 166 
64 168 
64 170 
64 172 
64 174 
64 175 
65 66 
65 89 
65 92 
65 94 
65 96 
65 97 
65 100 
65 101 
65 104 
65 105 
65 108 
65 110 
65 111 
65 114 
65 115 
65 118 
65 120 
65 122 
65 123 
65 126 
65 128 
65 129 
65 131 
65 133 
65 135 
65 137 
65 140 
65 142 
65 143 
65 145 
65 148 
65 150 
65 151 
65 153 
65 155 
65 158 
65 160 
65 162 
65 163 
65 165 
65 168 
65 170 
65 171 
65 173 
65 176 
66 90 
66 91 
66 93 
66 95 
66 98 
66 99 
66 102 
66 103 
66 106 
66 107 
66 109 
66 112 
66 113 
66 116 
66 117 
66 119 
66 121 
66 124 
66 125 
66 127 
66 130 
66 132 
66 134 
66 136 
66 138 
66 139 
66 141 
66 144 
66 146 
66 147 
66 149 
66 152 
66 154 
66 156 
66 157 
66 159 
66 161 
66 164 
66 166 
66 167 
66 169 
66 172 
66 174 
66 175 
67 68 
67 89 
67 91 
67 94 
67 95 
67 98 
67 100 
67 101 
67 103 
67 106 
67 107 
67 110 
67 112 
67 114 
67 115 
67 118 
67 120 
67 122 
67 123 
67 126 
67 127 
67 130 
67 131 
67 133 
67 136 
67 137 
67 140 
67 141 
67 143 
67 146 
67 148 
67 149 
67 152 
67 154 
67 155 
67 157 
67 160 
67 161 
67 164 
67 165 
67 167 
67 169 
67 171 
67 174 
67 175 
68 90 
68 92 
68 93 
68 96 
68 97 
68 99 
68 102 
68 104 
68 105 
68 108 
68 109 
68 111 
68 113 
68 116 
68 117 
68 119 
68 121 
68 124 
68 125 
68 128 
68 129 
68 132 
68 134 
68 135 
68 138 
68 139 
68 142 
68 144 
68 145 
68 147 
68 150 
68 151 
68 153 
68 156 
68 158 
68 159 
68 162 
68 163 
68 166 
68 168 
68 170 
68 172 
68 173 
68 176 
69 70 
69 90 
69 92 
69 94 
69 95 
69 97 
69 100 
69 102 
69 103 
69 105 
69 107 
69 109 
69 111 
69 114 
69 116 
69 117 
69 120 
69 122 
69 123 
69 125 
69 127 
69 129 
69 132 
69 134 
69 135 
69 138 
69 140 
69 141 
69 143 
69 146 
69 148 
69 150 
69 152 
69 154 
69 155 
69 157 
69 159 
69 162 
69 163 
69 165 
69 167 
69 169 
69 172 
69 173 
69 176 
70 89 
70 91 
70 93 
70 96 
70 98 
70 99 
70 101 
70 104 
70 106 
70 108 
70 110 
70 112 
70 113 
70 115 
70 118 
70 119 
70 121 
70 124 
70 126 
70 128 
70 130 
70 131 
70 133 
70 136 
70 137 
70 139 
70 142 
70 144 
70 145 
70 147 
70 149 
70 151 
70 153 
70 156 
70 158 
70 160 
70 161 
70 164 
70 166 
70 168 
70 170 
70 171 
70 174 
70 175 
71 72 
71 90 
71 91 
71 94 
71 96 
71 98 
71 99 
71 101 
71 103 
71 105 
71 107 
71 110 
71 111 
71 114 
71 116 
71 118 
71 120 
71 121 
71 124 
71 126 
71 128 
71 130 
71 132 
71 134 
71 136 
71 137 
71 139 
71 142 
71 144 
71 145 
71 148 
71 149 
71 151 
71 154 
71 155 
71 157 
71 159 
71 161 
71 163 
71 165 
71 167 
71 170 
71 172 
71 173 
71 176 
72 89 
72 92 
72 93 
72 95 
72 97 
72 100 
72 102 
72 104 
72 106 
72 108 
72 109 
72 112 
72 113 
72 115 
72 117 
72 119 
72 122 
72 123 
72 125 
72 127 
72 129 
72 131 
72 133 
72 135 
72 138 
72 140 
72 141 
72 143 
72 146 
72 147 
72 150 
72 152 
72 153 
72 156 
72 158 
72 160 
72 162 
72 164 
72 166 
72 168 
72 169 
72 171 
72 174 
72 175 
73 74 
73 90 
73 91 
73 93 
73 96 
73 97 
73 100 
73 102 
73 103 
73 106 
73 108 
73 110 
73 111 
73 114 
73 116 
73 118 
73 120 
73 122 
73 124 
73 126 
73 128 
73 130 
73 132 
73 133 
73 136 
73 138 
73 140 
73 142 
73 144 
73 146 
73 147 
73 150 
73 152 
73 153 
73 155 
73 157 
73 160 
73 162 
73 164 
73 166 
73 168 
73 169 
73 172 
73 174 
73 176 
74 89 
74 92 
74 94 
74 95 
74 98 
74 99 
74 101 
74 104 
74 105 
74 107 
74 109 
74 112 
74 113 
74 115 
74 117 
74 119 
74 121 
74 123 
74 125 
74 127 
74 129 
74 131 
74 134 
74 135 
74 137 
74 139 
74 141 
74 143 
74 145 
74 148 
74 149 
74 151 
74 154 
74 156 
74 158 
74 159 
74 161 
74 163 
74 165 
74 167 
74 170 
74 171 
74 173 
74 175 
75 76 
75 89 
75 92 
75 93 
75 95 
75 98 
75 100 
75 101 
75 103 
75 106 
75 107 
75 110 
75 111 
75 114 
75 116 
75 117 
75 119 
75 122 
75 124 
75 126 
75 127 
75 130 
75 131 
75 134 
75 136 
75 138 
75 139 
75 141 
75 143 
75 145 
75 147 
75 150 
75 151 
75 153 
75 156 
75 157 
75 159 
75 162 
75 164 
75 165 
75 168 
75 170 
75 171 
75 173 
75 176 
76 90 
76 91 
76 94 
76 96 
76 97 
76 99 
76 102 
76 104 
76 105 
76 108 
76 109 
76 112 
76 113 
76 115 
76 118 
76 120 
76 121 
76 123 
76 125 
76 128 
76 129 
76 132 
76 133 
76 135 
76 137 
76 140 
76 142 
76 144 
76 146 
76 148 
76 149 
76 152 
76 154 
76 155 
76 158 
76 160 
76 161 
76 163 
76 166 
76 167 
76 169 
76 172 
76 174 
76 175 
77 78 
77 90 
77 92 
77 93 
77 95 
77 97 
77 100 
77 101 
77 103 
77 105 
77 108 
77 109 
77 112 
77 113 
77 115 
77 118 
77 119 
77 122 
77 124 
77 126 
77 128 
77 130 
77 132 
77 133 
77 135 
77 138 
77 140 
77 142 
77 144 
77 145 
77 148 
77 150 
77 151 
77 154 
77 156 
77 157 
77 159 
77 161 
77 164 
77 165 
77 167 
77 169 
77 171 
77 173 
77 175 
78 89 
78 91 
78 94 
78 96 
78 98 
78 99 
78 102 
78 104 
78 106 
78 107 
78 110 
78 111 
78 114 
78 116 
78 117 
78 120 
78 121 
78 123 
78 125 
78 127 
78 129 
78 131 
78 134 
78 136 
78 137 
78 139 
78 141 
78 143 
78 146 
78 147 
78 149 
78 152 
78 153 
78 155 
78 158 
78 160 
78 162 
78 163 
78 166 
78 168 
78 170 
78 172 
78 174 
78 176 
79 80 
79 90 
79 91 
79 94 
79 95 
79 98 
79 99 
79 102 
79 104 
79 106 
79 108 
79 109 
79 111 
79 113 
79 116 
79 118 
79 119 
79 122 
79 124 
79 126 
79 128 
79 129 
79 131 
79 133 
79 135 
79 137 
79 139 
79 141 
79 143 
79 146 
79 148 
79 150 
79 152 
79 154 
79 155 
79 157 
79 159 
79 161 
79 164 
79 166 
79 168 
79 170 
79 171 
79 173 
79 176 
80 89 
80 92 
80 93 
80 96 
80 97 
80 100 
80 101 
80 103 
80 105 
80 107 
80 110 
80 112 
80 114 
80 115 
80 117 
80 120 
80 121 
80 123 
80 125 
80 127 
80 130 
80 132 
80 134 
80 136 
80 138 
80 140 
80 142 
80 144 
80 145 
80 147 
80 149 
80 151 
80 153 
80 156 
80 158 
80 160 
80 162 
80 163 
80 165 
80 167 
80 169 
80 172 
80 174 
80 175 
81 82 
81 89 
81 91 
81 94 
81 95 
81 97 
81 99 
81 101 
81 103 
81 106 
81 108 
81 109 
81 112 
81 114 
81 116 
81 118 
81 120 
81 122 
81 124 
81 125 
81 128 
81 130 
81 132 
81 134 
81 135 
81 138 
81 139 
81 141 
81 143 
81 145 
81 148 
81 149 
81 151 
81 153 
81 155 
81 158 
81 159 
81 162 
81 163 
81 166 
81 168 
81 169 
81 171 
81 174 
81 175 
82 90 
82 92 
82 93 
82 96 
82 98 
82 100 
82 102 
82 104 
82 105 
82 107 
82 110 
82 111 
82 113 
82 115 
82 117 
82 119 
82 121 
82 123 
82 126 
82 127 
82 129 
82 131 
82 133 
82 136 
82 137 
82 140 
82 142 
82 144 
82 146 
82 147 
82 150 
82 152 
82 154 
82 156 
82 157 
82 160 
82 161 
82 164 
82 165 
82 167 
82 170 
82 172 
82 173 
82 176 
83 84 
83 89 
83 92 
83 94 
83 96 
83 98 
83 100 
83 101 
83 103 
83 106 
83 108 
83 109 
83 111 
83 113 
83 115 
83 118 
83 119 
83 121 
83 123 
83 126 
83 127 
83 130 
83 132 
83 134 
83 135 
83 137 
83 139 
83 142 
83 143 
83 146 
83 147 
83 150 
83 151 
83 154 
83 155 
83 158 
83 159 
83 162 
83 164 
83 166 
83 167 
83 169 
83 172 
83 174 
83 176 
84 90 
84 91 
84 93 
84 95 
84 97 
84 99 
84 102 
84 104 
84 105 
84 107 
84 110 
84 112 
84 114 
84 116 
84 117 
84 120 
84 122 
84 124 
84 125 
84 128 
84 129 
84 131 
84 133 
84 136 
84 138 
84 140 
84 141 
84 144 
84 145 
84 148 
84 149 
84 152 
84 153 
84 156 
84 157 
84 160 
84 161 
84 163 
84 165 
84 168 
84 170 
84 171 
84 173 
84 175 
85 86 
85 90 
85 92 
85 93 
85 95 
85 98 
85 100 
85 101 
85 104 
85 106 
85 107 
85 110 
85 111 
85 113 
85 116 
85 118 
85 120 
85 122 
85 124 
85 125 
85 128 
85 129 
85 132 
85 133 
85 135 
85 137 
85 139 
85 141 
85 144 
85 146 
85 147 
85 149 
85 151 
85 154 
85 156 
85 158 
85 160 
85 162 
85 163 
85 165 
85 167 
85 169 
85 171 
85 174 
85 176 
86 89 
86 91 
86 94 
86 96 
86 97 
86 99 
86 102 
86 103 
86 105 
86 108 
86 109 
86 112 
86 114 
86 115 
86 117 
86 119 
86 121 
86 123 
86 126 
86 127 
86 130 
86 131 
86 134 
86 136 
86 138 
86 140 
86 142 
86 143 
86 145 
86 148 
86 150 
86 152 
86 153 
86 155 
86 157 
86 159 
86 161 
86 164 
86 166 
86 168 
86 170 
86 172 
86 173 
86 175 
87 88 
87 89 
87 91 
87 94 
87 96 
87 98 
87 100 
87 102 
87 103 
87 106 
87 107 
87 109 
87 111 
87 113 
87 115 
87 118 
87 119 
87 122 
87 124 
87 125 
87 128 
87 129 
87 131 
87 134 
87 136 
87 137 
87 140 
87 141 
87 144 
87 145 
87 148 
87 150 
87 151 
87 153 
87 156 
87 157 
87 160 
87 162 
87 163 
87 166 
87 167 
87 169 
87 172 
87 173 
87 175 
88 90 
88 92 
88 93 
88 95 
88 97 
88 99 
88 101 
88 104 
88 105 
88 108 
88 110 
88 112 
88 114 
88 116 
88 117 
88 120 
88 121 
88 123 
88 126 
88 127 
88 130 
88 132 
88 133 
88 135 
88 138 
88 139 
88 142 
88 143 
88 146 
88 147 
88 149 
88 152 
88 154 
88 155 
88 158 
88 159 
88 161 
88 164 
88 165 
88 168 
88 170 
88 171 
88 174 
88 176 
89 90 
91 92 
93 94 
95 96 
97 98 
99 100 
101 102 
103 104 
105 106 
107 108 
109 110 
111 112 
113 114 
115 116 
117 118 
119 120 
121 122 
123 124 
125 126 
127 128 
129 130 
131 132 
133 134 
135 136 
137 138 
139 140 
141 142 
143 144 
145 146 
147 148 
149 150 
151 152 
153 154 
155 156 
157 158 
159 160 
161 162 
163 164 
165 166 
167 168 
169 170 
171 172 
173 174 
175 176 
